
#(C) 2025 by FIZ Karlsruhe - Leibniz Institute for Information Infrastructure.  All rights reserved.
data_432615-ICSD
_database_code_ICSD 432615
_audit_creation_date 2017-08-01
_chemical_name_common 'Rhodium germanide (1/0.986)'
_chemical_formula_structural 'Rh Ge0.986'
_chemical_formula_sum 'Ge0.986 Rh1'
_chemical_name_structure_type FeSi
_exptl_crystal_density_diffrn 9.99
_diffrn_ambient_temperature 298.
_citation_title 'Superconductivity and magnetism in noncentrosymmetric RhGe'
loop_
_citation_id
_citation_journal_full
_citation_year
_citation_journal_volume
_citation_page_first
_citation_page_last
_citation_journal_id_ASTM
primary 'Journal of Alloys and Compounds' 2016 686 431 437 JALCEU
loop_
_citation_author_citation_id
_citation_author_name
primary 'Tsvyashchenko, A.V.'
primary 'Sidorov, V.A.'
primary 'Petrova, A.E.'
primary 'Fomicheva, L.N.'
primary 'Zibrov, I.P.'
primary 'Dmitrienko, V.E.'
_cell_length_a 4.859561
_cell_length_b 4.859561
_cell_length_c 4.859561
_cell_angle_alpha 90.
_cell_angle_beta 90.
_cell_angle_gamma 90.
_cell_volume 114.76
_cell_formula_units_Z 4
_space_group_name_H-M_alt 'P 21 3'
_space_group_IT_number 198
loop_
_space_group_symop_id
_space_group_symop_operation_xyz
1 '-z+1/2, -x, y+1/2'
2 '-y+1/2, -z, x+1/2'
3 '-x+1/2, -y, z+1/2'
4 '-z, x+1/2, -y+1/2'
5 '-y, z+1/2, -x+1/2'
6 '-x, y+1/2, -z+1/2'
7 'z+1/2, -x+1/2, -y'
8 'y+1/2, -z+1/2, -x'
9 'x+1/2, -y+1/2, -z'
10 'z, x, y'
11 'y, z, x'
12 'x, y, z'
loop_
_atom_type_symbol
_atom_type_oxidation_number
Rh0+ 0
Ge0+ 0
loop_
_atom_site_label
_atom_site_type_symbol
_atom_site_symmetry_multiplicity
_atom_site_Wyckoff_symbol
_atom_site_fract_x
_atom_site_fract_y
_atom_site_fract_z
_atom_site_U_iso_or_equiv
_atom_site_occupancy
Rh1 Rh0+ 4 a 0.12820(10) 0.12820(10) 0.12820(10) 0.01573 1.
Ge1 Ge0+ 4 a 0.83348(13) 0.83348(13) 0.83348(13) 0.02191 0.986
#End of TTdata_432615-ICSD