
#(C) 2025 by FIZ Karlsruhe - Leibniz Institute for Information Infrastructure.  All rights reserved.
data_246061-ICSD
_database_code_ICSD 246061
_audit_creation_date 2009-02-01
_audit_update_record 2011-02-01
_chemical_name_common 'Lanthanum nickel oxide arsenide (1/1/1/1)'
_chemical_formula_structural 'La Ni O As'
_chemical_formula_sum 'As1 La1 Ni1 O1'
_chemical_name_structure_type ZrCuSiAs
_exptl_crystal_density_diffrn 6.88
_citation_title 'Nickel-based layered superconductor, La Ni O As'
loop_
_citation_id
_citation_journal_full
_citation_year
_citation_journal_volume
_citation_page_first
_citation_page_last
_citation_journal_id_ASTM
primary 'Journal of Solid State Chemistry' 2008 181 2117 2120 JSSCBI
loop_
_citation_author_citation_id
_citation_author_name
primary 'Watanabe, T.'
primary 'Yanagi, H.'
primary 'Kamihara, Y.'
primary 'Kamiya, T.'
primary 'Hirano, M.'
primary 'Hosono, H.'
_cell_length_a 4.12309(1)
_cell_length_b 4.12309(1)
_cell_length_c 8.18848(6)
_cell_angle_alpha 90.
_cell_angle_beta 90.
_cell_angle_gamma 90.
_cell_volume 139.2
_cell_formula_units_Z 2
_space_group_name_H-M_alt 'P 4/n m m Z'
_space_group_IT_number 129
loop_
_space_group_symop_id
_space_group_symop_operation_xyz
1 'y+1/2, x+1/2, -z'
2 '-y, x+1/2, -z'
3 'y+1/2, -x, -z'
4 '-y, -x, -z'
5 'x+1/2, y+1/2, -z'
6 '-x, y+1/2, -z'
7 'x+1/2, -y, -z'
8 '-x, -y, -z'
9 '-y+1/2, -x+1/2, z'
10 'y, -x+1/2, z'
11 '-y+1/2, x, z'
12 'y, x, z'
13 '-x+1/2, -y+1/2, z'
14 'x, -y+1/2, z'
15 '-x+1/2, y, z'
16 'x, y, z'
loop_
_atom_type_symbol
_atom_type_oxidation_number
La3+ 3
Ni2+ 2
O2- -2
As3- -3
loop_
_atom_site_label
_atom_site_type_symbol
_atom_site_symmetry_multiplicity
_atom_site_Wyckoff_symbol
_atom_site_fract_x
_atom_site_fract_y
_atom_site_fract_z
_atom_site_B_iso_or_equiv
_atom_site_occupancy
La1 La3+ 2 c 0.25 0.25 0.14697(9) 0.25 1.
Ni1 Ni2+ 2 b 0.75 0.25 0.5 0.4 1.
O1 O2- 2 a 0.75 0.25 0 0.9 1.
As1 As3- 2 c 0.25 0.25 0.6368(1) 0.45 1.
#End of TTdata_246061-ICSD