
#(C) 2025 by FIZ Karlsruhe - Leibniz Institute for Information Infrastructure.  All rights reserved.
data_618179-ICSD
_database_code_ICSD 618179
_audit_creation_date 2020-08-01
_chemical_name_common 'Lanthanum nickel carbide (1/1/2)'
_chemical_formula_structural 'La Ni C2'
_chemical_formula_sum 'C2 La1 Ni1'
_chemical_name_structure_type CeNiC2
_exptl_crystal_density_diffrn 6.57
_citation_title 'The crystal structure of RNiC$_2$ compounds (R = Ce, La, Pr)'
_publ_section_comment 'Cell and Type only determined'
loop_
_citation_id
_citation_journal_full
_citation_year
_citation_journal_volume
_citation_page_first
_citation_page_last
_citation_journal_id_ASTM
primary

;
Dopovidi Akademii Nauk Ukrains'koi RSR, Seriya A: Fiziko-Matematichni ta
Tekhnichni Nauki
; 1979 41 1048 1050 DNUNDU
loop_
_citation_author_citation_id
_citation_author_name
primary 'Bodak, O.I.'
primary 'Marusin, E.P.'
_cell_length_a 3.956(3)
_cell_length_b 4.563(4)
_cell_length_c 6.204(5)
_cell_angle_alpha 90.
_cell_angle_beta 90.
_cell_angle_gamma 90.
_cell_volume 111.99
_cell_formula_units_Z 2
_space_group_name_H-M_alt 'A m m 2'
_space_group_IT_number 38
loop_
_space_group_symop_id
_space_group_symop_operation_xyz
1 'x, -y, z'
2 '-x, y, z'
3 '-x, -y, z'
4 'x, y, z'
5 'x, -y+1/2, z+1/2'
6 '-x, y+1/2, z+1/2'
7 '-x, -y+1/2, z+1/2'
8 'x, y+1/2, z+1/2'
loop_
_atom_type_symbol
_atom_type_oxidation_number
La0+ 0
Ni0+ 0
C0+ 0
loop_
_atom_site_label
_atom_site_type_symbol
_atom_site_symmetry_multiplicity
_atom_site_Wyckoff_symbol
_atom_site_fract_x
_atom_site_fract_y
_atom_site_fract_z
_atom_site_B_iso_or_equiv
_atom_site_occupancy
La1 La0+ 2 a 0 0 0 . 1.
Ni1 Ni0+ 2 b 0.5 0 0.615 . 1.
C1 C0+ 4 e 0.5 0.155 0.3 . 1.
#End of TTdata_618179-ICSD