
#(C) 2025 by FIZ Karlsruhe - Leibniz Institute for Information Infrastructure.  All rights reserved.
data_252019-ICSD
_database_code_ICSD 252019
_audit_creation_date 2016-02-01
_chemical_name_common 'Lithium iridium silicide (2/1/3)'
_chemical_formula_structural 'Li2 Ir Si3'
_chemical_formula_sum 'Ir1 Li2 Si3'
_exptl_crystal_density_diffrn 5.67
_diffrn_ambient_temperature 300.
_citation_title
'Superconductivity in noncentrosymmetric iridium silicide Li2IrSi3'
loop_
_citation_id
_citation_journal_full
_citation_year
_citation_journal_volume
_citation_page_first
_citation_page_last
_citation_journal_id_ASTM
primary 'Journal of the Physical Society of Japan' 2014 83 1 5 JUPSAU
loop_
_citation_author_citation_id
_citation_author_name
primary 'Pyon, Sunseng'
primary 'Kudo, Kazutaka'
primary 'Matsumura, Jun-ichi'
primary 'Ishii, Hiroyuki'
primary 'Matsuo, Genta'
primary 'Nohara, Minoru'
primary 'Hojo, Hajime'
primary 'Oka, Kengo'
primary 'Azuma, Masaki'
primary 'Garlea, V.Ovidiu'
primary 'Kodama, Katsuaki'
primary 'Shamoto, Shin-ichi'
_cell_length_a 5.0139(2)
_cell_length_b 5.0139(2)
_cell_length_c 7.8397(3)
_cell_angle_alpha 90.
_cell_angle_beta 90.
_cell_angle_gamma 120.
_cell_volume 170.68
_cell_formula_units_Z 2
_space_group_name_H-M_alt 'P 3 1 c'
_space_group_IT_number 159
loop_
_space_group_symop_id
_space_group_symop_operation_xyz
1 '-x, -x+y, z+1/2'
2 'x-y, -y, z+1/2'
3 'y, x, z+1/2'
4 '-x+y, -x, z'
5 '-y, x-y, z'
6 'x, y, z'
loop_
_atom_type_symbol
_atom_type_oxidation_number
Ir0+ 0
Li0+ 0
Si0+ 0
loop_
_atom_site_label
_atom_site_type_symbol
_atom_site_symmetry_multiplicity
_atom_site_Wyckoff_symbol
_atom_site_fract_x
_atom_site_fract_y
_atom_site_fract_z
_atom_site_B_iso_or_equiv
_atom_site_occupancy
Ir1 Ir0+ 2 a 0 0 0 0.70(4) 1.
Li1 Li0+ 2 b 0.3333 0.6667 0.0589(10) 0.35(24) 1.
Li2 Li0+ 2 b 0.6667 0.3333 -0.0589(10) 0.35(24) 1.
Si1 Si0+ 6 c 0.81424 0.65238 0.24317 0.40(5) 1.
#End of TTdata_252019-ICSD