
#(C) 2025 by FIZ Karlsruhe - Leibniz Institute for Information Infrastructure.  All rights reserved.
data_291087-ICSD
_database_code_ICSD 291087
_audit_creation_date 2015-08-01
_chemical_name_common
'Strontium praseodymium fluoride bismuth sulfide (0.5/0.5/1/1/2)'
_chemical_formula_structural 'Sr0.5 Pr0.5 F Bi S2'
_chemical_formula_sum 'Bi1 F1 Pr0.5 S2 Sr0.5'
_chemical_name_structure_type CeBiOS2
_exptl_crystal_density_diffrn 6.13
_diffrn_ambient_temperature 293.
_citation_title

;
Appearance of bulk superconductivity under hydrostatic pressure in Sr0.5 RE0.5
F Bi S2 (RE = Ce, Nd, Pr, and Sm) compounds
;
loop_
_citation_id
_citation_journal_full
_citation_year
_citation_journal_volume
_citation_page_first
_citation_page_last
_citation_journal_id_ASTM
primary 'Journal of Applied Physics (Melville, NY, United States)' 2015 117 1 7
JAPIAU
loop_
_citation_author_citation_id
_citation_author_name
primary 'Jha, Rajveer'
primary 'Tiwari, Brajesh'
primary 'Awana, V.P.S.'
_cell_length_a 4.061(2)
_cell_length_b 4.061(2)
_cell_length_c 13.36(1)
_cell_angle_alpha 90.
_cell_angle_beta 90.
_cell_angle_gamma 90.
_cell_volume 220.33
_cell_formula_units_Z 2
_space_group_name_H-M_alt 'P 4/n m m Z'
_space_group_IT_number 129
loop_
_space_group_symop_id
_space_group_symop_operation_xyz
1 'y+1/2, x+1/2, -z'
2 '-y, x+1/2, -z'
3 'y+1/2, -x, -z'
4 '-y, -x, -z'
5 'x+1/2, y+1/2, -z'
6 '-x, y+1/2, -z'
7 'x+1/2, -y, -z'
8 '-x, -y, -z'
9 '-y+1/2, -x+1/2, z'
10 'y, -x+1/2, z'
11 '-y+1/2, x, z'
12 'y, x, z'
13 '-x+1/2, -y+1/2, z'
14 'x, -y+1/2, z'
15 '-x+1/2, y, z'
16 'x, y, z'
loop_
_atom_type_symbol
_atom_type_oxidation_number
Sr2+ 2
Pr2+ 2
Bi3+ 3
S2- -2
F1- -1
loop_
_atom_site_label
_atom_site_type_symbol
_atom_site_symmetry_multiplicity
_atom_site_Wyckoff_symbol
_atom_site_fract_x
_atom_site_fract_y
_atom_site_fract_z
_atom_site_B_iso_or_equiv
_atom_site_occupancy
Sr1 Sr2+ 2 c 0.25 0.25 0.114(1) . 0.5
Pr1 Pr2+ 2 c 0.25 0.25 0.114(1) . 0.5
Bi1 Bi3+ 2 c 0.25 0.25 0.624(3) . 1.
S1 S2- 2 c 0.25 0.25 0.364(2) . 1.
S2 S2- 2 c 0.25 0.25 0.810(1) . 1.
F1 F1- 2 a 0.75 0.25 0 . 1.
#End of TTdata_291087-ICSD