
#(C) 2025 by FIZ Karlsruhe - Leibniz Institute for Information Infrastructure.  All rights reserved.
data_180603-ICSD
_database_code_ICSD 180603
_audit_creation_date 2011-08-01
_chemical_name_common 'Iron telluride sulfide (1/0.95/0.05)'
_chemical_formula_structural 'Fe (Te0.95 S0.05)'
_chemical_formula_sum 'Fe1 S0.05 Te0.95'
_chemical_name_structure_type FeSe
_exptl_crystal_density_diffrn 6.52
_diffrn_ambient_temperature 293.
_citation_title

;
Superconductivity and thermal properties of sulphur doped Fe Te with effect of
oxygen post annealing
;
loop_
_citation_id
_citation_journal_full
_citation_year
_citation_journal_volume
_citation_page_first
_citation_page_last
_citation_journal_id_ASTM
primary
'Physica C: Superconductivity and Ist Application (Amsterdam, Netherlands)' 2011 471 77 82 PHYCE6
loop_
_citation_author_citation_id
_citation_author_name
primary 'Awana, V.P.S.'
primary 'Pal, A.'
primary 'Vajpayee, A.'
primary 'Gahtori, B.'
primary 'Kishan, H.'
_cell_length_a 3.813(4)
_cell_length_b 3.813(4)
_cell_length_c 6.257(6)
_cell_angle_alpha 90.
_cell_angle_beta 90.
_cell_angle_gamma 90.
_cell_volume 90.97
_cell_formula_units_Z 2
_space_group_name_H-M_alt 'P 4/n m m Z'
_space_group_IT_number 129
loop_
_space_group_symop_id
_space_group_symop_operation_xyz
1 'y+1/2, x+1/2, -z'
2 '-y, x+1/2, -z'
3 'y+1/2, -x, -z'
4 '-y, -x, -z'
5 'x+1/2, y+1/2, -z'
6 '-x, y+1/2, -z'
7 'x+1/2, -y, -z'
8 '-x, -y, -z'
9 '-y+1/2, -x+1/2, z'
10 'y, -x+1/2, z'
11 '-y+1/2, x, z'
12 'y, x, z'
13 '-x+1/2, -y+1/2, z'
14 'x, -y+1/2, z'
15 '-x+1/2, y, z'
16 'x, y, z'
loop_
_atom_type_symbol
_atom_type_oxidation_number
Fe2+ 2
Te2- -2
S2- -2
loop_
_atom_site_label
_atom_site_type_symbol
_atom_site_symmetry_multiplicity
_atom_site_Wyckoff_symbol
_atom_site_fract_x
_atom_site_fract_y
_atom_site_fract_z
_atom_site_B_iso_or_equiv
_atom_site_occupancy
Fe1 Fe2+ 2 a 0.75 0.25 0 . 1.
Te1 Te2- 2 c 0.25 0.25 0.2830(27) . 0.95
S1 S2- 2 c 0.25 0.25 0.2830(27) . 0.05
#End of TTdata_180603-ICSD