
#(C) 2025 by FIZ Karlsruhe - Leibniz Institute for Information Infrastructure.  All rights reserved.
data_79125-ICSD
_database_code_ICSD 79125
_audit_creation_date 1996-04-22
_chemical_name_common 'Ytterbium carbon (2.75/60)'
_chemical_formula_structural 'Yb2.75 C60'
_chemical_formula_sum 'C60 Yb2.75'
_exptl_crystal_density_diffrn 2.92
_citation_title

;
Superconductivity and cation-vacancy ordering in the rare-earth fulleride
Yb2.75 C60
;
loop_
_citation_id
_citation_journal_full
_citation_year
_citation_journal_volume
_citation_page_first
_citation_page_last
_citation_journal_id_ASTM
primary 'Nature (London, United Kingdom)' 1995 375 126 129 NATUAS
loop_
_citation_author_citation_id
_citation_author_name
primary 'Oezdas, E.'
primary 'Kortan, A.R.'
primary 'Kopylov, N.'
primary 'Ramirez, A.P.'
primary 'Siegrist, T.'
primary 'Rabe, K.M.'
primary 'Bair, H.E.'
primary 'Schuppler, S.'
primary 'Citrin, P.H.'
_cell_length_a 27.8743(2)
_cell_length_b 27.98039(20)
_cell_length_c 27.87329(20)
_cell_angle_alpha 90.
_cell_angle_beta 90.
_cell_angle_gamma 90.
_cell_volume 21739.32
_cell_formula_units_Z 32
_space_group_name_H-M_alt 'P c a b'
_space_group_IT_number 61
loop_
_space_group_symop_id
_space_group_symop_operation_xyz
1 'x+1/2, -y+1/2, z'
2 'x, y+1/2, -z+1/2'
3 '-x+1/2, y, z+1/2'
4 '-x, -y, -z'
5 '-x+1/2, y+1/2, -z'
6 '-x, -y+1/2, z+1/2'
7 'x+1/2, -y, -z+1/2'
8 'x, y, z'
loop_
_atom_type_symbol
_atom_type_oxidation_number
Yb0+ 0
C0+ 0
loop_
_atom_site_label
_atom_site_type_symbol
_atom_site_symmetry_multiplicity
_atom_site_Wyckoff_symbol
_atom_site_fract_x
_atom_site_fract_y
_atom_site_fract_z
_atom_site_B_iso_or_equiv
_atom_site_occupancy
Yb1 Yb0+ 8 c 0.1263(2) 0.1162(3) 0.3753 5.0(1) 1.
Yb2 Yb0+ 8 c 0.3753 0.1263 0.1162 5.0(1) 1.
Yb3 Yb0+ 8 c 0.1162 0.3753 0.1263 5.0(1) 1.
Yb4 Yb0+ 8 c 0.1263(2) 0.3630(3) 0.3775 5.0(1) 1.
Yb5 Yb0+ 8 c 0.3775 0.1263 0.363 5.0(1) 1.
Yb6 Yb0+ 8 c 0.363 0.3775 0.1263 5.0(1) 1.
Yb7 Yb0+ 8 c 0.3747 0.3665 0.3753 5.0(1) 1.
Yb8 Yb0+ 8 c 0.2000(2) 0.2 0.2 3.9(2) 0.85(2)
Yb9 Yb0+ 8 c 0.05 0.05 0.2 3.9(2) 0.85(2)
Yb10 Yb0+ 8 c 0.2 0.05 0.05 3.9(2) 0.85(2)
Yb11 Yb0+ 8 c 0.05 0.2 0.05 3.9(2) 0.85(2)
Yb12 Yb0+ 8 c 0.2 0.3 0.3 3.9(2) 0.15(2)
Yb13 Yb0+ 8 c 0.05 0.95 0.3 3.9(2) 0.15(2)
Yb14 Yb0+ 8 c 0.3 0.95 0.05 3.9(2) 0.3
C1 C0+ 4 a 0 0 0 0.86(2) 60.
C2 C0+ 8 c 0 0.25 0.25 0.86(2) 60.
C3 C0+ 8 c 0.25 0 0.25 0.86(2) 60.
C4 C0+ 8 c 0.25 0.25 0 0.86(2) 60.
C5 C0+ 4 b 0.5 0.5 0.5 0.86(2) 60.
#End of TTdata_79125-ICSD