
#(C) 2025 by FIZ Karlsruhe - Leibniz Institute for Information Infrastructure.  All rights reserved.
data_194458-ICSD
_database_code_ICSD 194458
_audit_creation_date 2015-08-01
_chemical_name_common 'Cerium oxide fluoride bismuth sulfide (1/0.34/0.66/1/2)'
_chemical_formula_structural 'Ce (O0.34 F0.66) Bi S2'
_chemical_formula_sum 'Bi1 Ce1 F0.66 O0.34 S2'
_chemical_name_structure_type CeBiOS2
_exptl_crystal_density_diffrn 6.61
_diffrn_ambient_temperature 293.
_citation_title
'Structure, superconductivity, and magnetism of Ce(O, F) Bi S2 single crystals'
loop_
_citation_id
_citation_journal_full
_citation_year
_citation_journal_volume
_citation_page_first
_citation_page_last
_citation_journal_id_ASTM
primary 'Crystal Growth & Design' 2015 15 39 44 CGDEFU
loop_
_citation_author_citation_id
_citation_author_name
primary 'Miura, Akira'
primary 'Nagao, Masanori'
primary 'Takei, Takahiro'
primary 'Watauchi, Satoshi'
primary 'Mizuguchi, Yoshikazu'
primary 'Takano, Yoshihiko'
primary 'Tanaka, Isao'
primary 'Kumada, Nobuhiro'
_cell_length_a 4.030(3)
_cell_length_b 4.030(3)
_cell_length_c 13.336(5)
_cell_angle_alpha 90.
_cell_angle_beta 90.
_cell_angle_gamma 90.
_cell_volume 216.58
_cell_formula_units_Z 2
_space_group_name_H-M_alt 'P 4/n m m Z'
_space_group_IT_number 129
loop_
_space_group_symop_id
_space_group_symop_operation_xyz
1 'y+1/2, x+1/2, -z'
2 '-y, x+1/2, -z'
3 'y+1/2, -x, -z'
4 '-y, -x, -z'
5 'x+1/2, y+1/2, -z'
6 '-x, y+1/2, -z'
7 'x+1/2, -y, -z'
8 '-x, -y, -z'
9 '-y+1/2, -x+1/2, z'
10 'y, -x+1/2, z'
11 '-y+1/2, x, z'
12 'y, x, z'
13 '-x+1/2, -y+1/2, z'
14 'x, -y+1/2, z'
15 '-x+1/2, y, z'
16 'x, y, z'
loop_
_atom_type_symbol
_atom_type_oxidation_number
Bi2+ 2.34
Ce3+ 3
S2- -2
O2- -2
F1- -1
loop_
_atom_site_label
_atom_site_type_symbol
_atom_site_symmetry_multiplicity
_atom_site_Wyckoff_symbol
_atom_site_fract_x
_atom_site_fract_y
_atom_site_fract_z
_atom_site_U_iso_or_equiv
_atom_site_occupancy
Bi1 Bi2+ 2 c 0.25 0.25 0.12295(10) 0.0196(5) 1.
Ce1 Ce3+ 2 c -0.25 -0.25 0.40070(14) 0.0161(5) 1.
S1 S2- 2 c -0.25 -0.25 0.1237(7) 0.026(2) 1.
S2 S2- 2 c 0.25 0.25 0.3132(6) 0.0162(17) 1.
O1 O2- 2 b -0.25 -0.75 0.5 0.007(4) 0.34
F1 F1- 2 b -0.25 -0.75 0.5 0.007(4) 0.66
loop_
_atom_site_aniso_label
_atom_site_aniso_type_symbol
_atom_site_aniso_U_11
_atom_site_aniso_U_22
_atom_site_aniso_U_33
_atom_site_aniso_U_12
_atom_site_aniso_U_13
_atom_site_aniso_U_23
Bi1 Bi2+ 0.02(4) 0.0209 0.0169 0. 0. 0.
Ce1 Ce3+ 0.01(4) 0.0149 0.0184 0. 0. 0.
S1 S2- 0.02(17) 0.0235 0.0315 0. 0. 0.
S2 S2- 0.02(13) 0.0177 0.0132 0. 0. 0.
O1 O2- 0.0(3) 0.0088 0.0027 0. 0. 0.
F1 F1- 0.0(3) 0.0088 0.0027 0. 0. 0.
#End of TTdata_194458-ICSD