
#(C) 2025 by FIZ Karlsruhe - Leibniz Institute for Information Infrastructure.  All rights reserved.
data_202572-ICSD
_database_code_ICSD 202572
_audit_creation_date 1988-12-19
_audit_update_record 2006-04-01
_chemical_name_common 'Lithium niobium oxide (0.58/1/2)'
_chemical_formula_structural 'Li0.58 Nb O2'
_chemical_formula_sum 'Li0.58 Nb1 O2'
_chemical_name_structure_type NaxNbO2
_exptl_crystal_density_diffrn 5.57
_citation_title 'Topochemical reactions of Lix Nb O2'
loop_
_citation_id
_citation_journal_full
_citation_year
_citation_journal_volume
_citation_page_first
_citation_page_last
_citation_journal_id_ASTM
primary 'Journal of Solid State Chemistry' 1988 73 33 39 JSSCBI
loop_
_citation_author_citation_id
_citation_author_name
primary 'Kumada, N.'
primary 'Muramatu, S.'
primary 'Muto, F.'
primary 'Kinomura, N.'
primary 'Kikkawa, S.'
primary 'Koizumi, M.'
_cell_length_a 2.912(1)
_cell_length_b 2.912(1)
_cell_length_c 10.46(1)
_cell_angle_alpha 90.
_cell_angle_beta 90.
_cell_angle_gamma 120.
_cell_volume 76.81
_cell_formula_units_Z 2
_space_group_name_H-M_alt 'P 63/m m c'
_space_group_IT_number 194
loop_
_space_group_symop_id
_space_group_symop_operation_xyz
1 'x, x-y, -z+1/2'
2 '-x+y, y, -z+1/2'
3 '-y, -x, -z+1/2'
4 '-x+y, -x, -z+1/2'
5 '-y, x-y, -z+1/2'
6 'x, y, -z+1/2'
7 '-x, -x+y, z+1/2'
8 'x-y, -y, z+1/2'
9 'y, x, z+1/2'
10 'x-y, x, z+1/2'
11 'y, -x+y, z+1/2'
12 '-x, -y, z+1/2'
13 '-x, -x+y, -z'
14 'x-y, -y, -z'
15 'y, x, -z'
16 'x-y, x, -z'
17 'y, -x+y, -z'
18 '-x, -y, -z'
19 'x, x-y, z'
20 '-x+y, y, z'
21 '-y, -x, z'
22 '-x+y, -x, z'
23 '-y, x-y, z'
24 'x, y, z'
loop_
_atom_type_symbol
_atom_type_oxidation_number
Li1+ 1
Nb3+ 3.42
O2- -2
loop_
_atom_site_label
_atom_site_type_symbol
_atom_site_symmetry_multiplicity
_atom_site_Wyckoff_symbol
_atom_site_fract_x
_atom_site_fract_y
_atom_site_fract_z
_atom_site_B_iso_or_equiv
_atom_site_occupancy
Li1 Li1+ 2 a 0 0 0 2.(4) 0.58
Nb1 Nb3+ 2 d 0.6667 0.3333 0.25 0.4(2) 1.
O1 O2- 4 f 0.3333 0.6667 0.133(2) 6.4(7) 1.
#End of TTdata_202572-ICSD