
#(C) 2025 by FIZ Karlsruhe - Leibniz Institute for Information Infrastructure.  All rights reserved.
data_82366-ICSD
_database_code_ICSD 82366
_audit_creation_date 1997-11-10
_chemical_name_common 'Sodium diarsenidodistannate'
_chemical_formula_structural 'Na (Sn2 As2)'
_chemical_formula_sum 'As2 Na1 Sn2'
_chemical_name_structure_type Bi2Te2S
_exptl_crystal_density_diffrn 5.33
_citation_title

;
Arsenidostannate mit Arsen-analogen (Sn As) - Schichten: Darstellung und
Struktur von Na (Sn2 As2), Na0.3 Ca0.7 (Sn2 As2), Na0.4 Sr0.6 (Sn2 As2), Na0.6
Ba0.4 (Sn2 As2) und K0.3 Sr0.7 (Sn2 As2)
;
loop_
_citation_id
_citation_journal_full
_citation_year
_citation_journal_volume
_citation_page_first
_citation_page_last
_citation_journal_id_ASTM
primary 'Zeitschrift fuer Anorganische und Allgemeine Chemie (1950) (DE)' 1995
621 576 582 ZAACAB
loop_
_citation_author_citation_id
_citation_author_name
primary 'Asbrand, M.'
primary 'Eisenmann, B.'
primary 'Klein, J.'
_cell_length_a 4.006(2)
_cell_length_b 4.006(2)
_cell_length_c 27.5810(50)
_cell_angle_alpha 90.
_cell_angle_beta 90.
_cell_angle_gamma 120.
_cell_volume 383.32
_cell_formula_units_Z 3
_space_group_name_H-M_alt 'R -3 m H'
_space_group_IT_number 166
loop_
_space_group_symop_id
_space_group_symop_operation_xyz
1 'x-y, -y, -z'
2 '-x, -x+y, -z'
3 'y, x, -z'
4 'x-y, x, -z'
5 'y, -x+y, -z'
6 '-x, -y, -z'
7 '-x+y, y, z'
8 'x, x-y, z'
9 '-y, -x, z'
10 '-x+y, -x, z'
11 '-y, x-y, z'
12 'x, y, z'
13 'x-y+2/3, -y+1/3, -z+1/3'
14 '-x+2/3, -x+y+1/3, -z+1/3'
15 'y+2/3, x+1/3, -z+1/3'
16 'x-y+2/3, x+1/3, -z+1/3'
17 'y+2/3, -x+y+1/3, -z+1/3'
18 '-x+2/3, -y+1/3, -z+1/3'
19 '-x+y+2/3, y+1/3, z+1/3'
20 'x+2/3, x-y+1/3, z+1/3'
21 '-y+2/3, -x+1/3, z+1/3'
22 '-x+y+2/3, -x+1/3, z+1/3'
23 '-y+2/3, x-y+1/3, z+1/3'
24 'x+2/3, y+1/3, z+1/3'
25 'x-y+1/3, -y+2/3, -z+2/3'
26 '-x+1/3, -x+y+2/3, -z+2/3'
27 'y+1/3, x+2/3, -z+2/3'
28 'x-y+1/3, x+2/3, -z+2/3'
29 'y+1/3, -x+y+2/3, -z+2/3'
30 '-x+1/3, -y+2/3, -z+2/3'
31 '-x+y+1/3, y+2/3, z+2/3'
32 'x+1/3, x-y+2/3, z+2/3'
33 '-y+1/3, -x+2/3, z+2/3'
34 '-x+y+1/3, -x+2/3, z+2/3'
35 '-y+1/3, x-y+2/3, z+2/3'
36 'x+1/3, y+2/3, z+2/3'
loop_
_atom_type_symbol
_atom_type_oxidation_number
Na1+ 1
Sn2+ 2
As2- -2.5
loop_
_atom_site_label
_atom_site_type_symbol
_atom_site_symmetry_multiplicity
_atom_site_Wyckoff_symbol
_atom_site_fract_x
_atom_site_fract_y
_atom_site_fract_z
_atom_site_B_iso_or_equiv
_atom_site_occupancy
Na1 Na1+ 3 a 0 0 0 . 1.
Sn1 Sn2+ 6 c 0 0 0.2103(1) . 1.
As1 As2- 6 c 0 0 0.4074(1) . 1.
loop_
_atom_site_aniso_label
_atom_site_aniso_type_symbol
_atom_site_aniso_U_11
_atom_site_aniso_U_22
_atom_site_aniso_U_33
_atom_site_aniso_U_12
_atom_site_aniso_U_13
_atom_site_aniso_U_23
Na1 Na1+ 0.0315(43) 0.0315(43) 0.0072(41) 0.0157(22) 0 0
Sn1 Sn2+ 0.0138(4) 0.0138(4) 0.0135(6) 0.0069(2) 0 0
As1 As2- 0.0136(6) 0.0136(6) 0.0144(8) 0.0068(3) 0 0
#End of TTdata_82366-ICSD