
#(C) 2025 by FIZ Karlsruhe - Leibniz Institute for Information Infrastructure.  All rights reserved.
data_184647-ICSD
_database_code_ICSD 184647
_audit_creation_date 2012-08-01
_chemical_name_common 'Lanthanum iron oxide fluoride arsenide (1/1/0.9/0.1/1)'
_chemical_formula_structural 'La Fe (O0.9 F0.1) As'
_chemical_formula_sum 'As1 F0.1 Fe1 La1 O0.9'
_chemical_name_structure_type ZrCuSiAs
_exptl_crystal_density_diffrn 6.74
_citation_title

;
Synthesis of La O1-x Fx Fe As (x=0 - 0.15) via solid state metathesis reaction
;
loop_
_citation_id
_citation_journal_full
_citation_year
_citation_journal_volume
_citation_page_first
_citation_page_last
_citation_journal_id_ASTM
primary 'Solid State Communications' 2012 152 632 634 SSCOA4
loop_
_citation_author_citation_id
_citation_author_name
primary 'Frankovsky, R.'
primary 'Marchuk, I.'
primary 'Pobel, R.'
primary 'Johrendt, D.'
_cell_length_a 4.024(1)
_cell_length_b 4.024(1)
_cell_length_c 8.706(1)
_cell_angle_alpha 90.
_cell_angle_beta 90.
_cell_angle_gamma 90.
_cell_volume 140.97
_cell_formula_units_Z 2
_space_group_name_H-M_alt 'P 4/n m m Z'
_space_group_IT_number 129
loop_
_space_group_symop_id
_space_group_symop_operation_xyz
1 'y+1/2, x+1/2, -z'
2 '-y, x+1/2, -z'
3 'y+1/2, -x, -z'
4 '-y, -x, -z'
5 'x+1/2, y+1/2, -z'
6 '-x, y+1/2, -z'
7 'x+1/2, -y, -z'
8 '-x, -y, -z'
9 '-y+1/2, -x+1/2, z'
10 'y, -x+1/2, z'
11 '-y+1/2, x, z'
12 'y, x, z'
13 '-x+1/2, -y+1/2, z'
14 'x, -y+1/2, z'
15 '-x+1/2, y, z'
16 'x, y, z'
loop_
_atom_type_symbol
_atom_type_oxidation_number
La3+ 3
Fe2+ 1.9
As3- -3
O2- -2
F1- -1
loop_
_atom_site_label
_atom_site_type_symbol
_atom_site_symmetry_multiplicity
_atom_site_Wyckoff_symbol
_atom_site_fract_x
_atom_site_fract_y
_atom_site_fract_z
_atom_site_B_iso_or_equiv
_atom_site_occupancy
La1 La3+ 2 c 0.25 0.25 0.1530(2) . 1.
Fe1 Fe2+ 2 b 0.75 0.25 0.5 . 1.
As1 As3- 2 c 0.25 0.25 0.6466(1) . 1.
O1 O2- 2 a 0.75 0.25 0. . 0.9
F1 F1- 2 a 0.75 0.25 0. . 0.1
#End of TTdata_184647-ICSD