
#(C) 2025 by FIZ Karlsruhe - Leibniz Institute for Information Infrastructure.  All rights reserved.
data_96011-ICSD
_database_code_ICSD 96011
_audit_creation_date 2004-04-01
_chemical_name_common 'Strontium yttrium iron copper oxide (2/1/1/2/7.60)'
_chemical_formula_structural 'Sr2 Y (Fe Cu2) O7.60'
_chemical_formula_sum 'Cu2 Fe1 O7.6 Sr2 Y1'
_chemical_name_structure_type TlSr3Fe2O8
_exptl_crystal_density_diffrn 5.7
_citation_title 'Crystal structure of magnetic superconductor Fe Sr2 Y Cu2 O6+d'
loop_
_citation_id
_citation_journal_full
_citation_year
_citation_journal_volume
_citation_page_first
_citation_page_last
_citation_journal_id_ASTM
primary 'Journal of the Physical Society of Japan' 2002 71 790 796 JUPSAU
loop_
_citation_author_citation_id
_citation_author_name
primary 'Mochiku, T.'
primary 'Mihara, Y.'
primary 'Hata, Y.'
primary 'Kamisawa, S.'
primary 'Fukuyama, M.'
primary 'Suzuki, J.-I.'
primary 'Kadowaki, K.'
primary 'Metoki, N.'
primary 'Fujii, H.'
primary 'Hirata, K.'
_cell_length_a 3.8193(1)
_cell_length_b 3.8193(1)
_cell_length_c 11.3602(3)
_cell_angle_alpha 90
_cell_angle_beta 90
_cell_angle_gamma 90
_cell_volume 165.71
_cell_formula_units_Z 1
_space_group_name_H-M_alt 'P 4/m m m'
_space_group_IT_number 123
loop_
_space_group_symop_id
_space_group_symop_operation_xyz
1 'y, x, -z'
2 '-y, -x, -z'
3 '-y, x, -z'
4 'y, -x, -z'
5 '-x, y, -z'
6 'x, -y, -z'
7 'x, y, -z'
8 '-x, -y, -z'
9 '-y, -x, z'
10 'y, x, z'
11 'y, -x, z'
12 '-y, x, z'
13 'x, -y, z'
14 '-x, y, z'
15 '-x, -y, z'
16 'x, y, z'
loop_
_atom_type_symbol
_atom_type_oxidation_number
Sr2+ 2
Y3+ 3
Cu3+ 2.733
Fe3+ 2.733
Cu3+ 2.733
Fe3+ 2.733
O2- -2
loop_
_atom_site_label
_atom_site_type_symbol
_atom_site_symmetry_multiplicity
_atom_site_Wyckoff_symbol
_atom_site_fract_x
_atom_site_fract_y
_atom_site_fract_z
_atom_site_B_iso_or_equiv
_atom_site_occupancy
Sr1 Sr2+ 2 h 0.5 0.5 0.1790(9) 1.2(2) 1.
Y1 Y3+ 1 d 0.5 0.5 0.5 0.6(2) 1.
Cu1 Cu3+ 1 a 0 0 0 0.5(3) 0.41(15)
Fe1 Fe3+ 1 a 0 0 0 0.5(3) 0.59(16)
Cu2 Cu3+ 2 g 0 0 0.3473(7) 0.6(2) 0.79(8)
Fe2 Fe3+ 2 g 0 0 0.3473(7) 0.6(2) 0.21(8)
O1 O2- 4 n 0.071(9) 0.5 0 2.1(7) 0.40(2)
O2 O2- 2 g 0 0 0.1631(11) 1.4(3) 1.
O3 O2- 4 i 0 0.5 0.3725(7) 0.8(2) 1.
#End of TTdata_96011-ICSD