
#(C) 2025 by FIZ Karlsruhe - Leibniz Institute for Information Infrastructure.  All rights reserved.
data_189724-ICSD
_database_code_ICSD 189724
_audit_creation_date 2014-02-01
_chemical_name_common 'Lanthanum palladium antimonide (1/2/2)'
_chemical_formula_structural 'La Pd2 Sb2'
_chemical_formula_sum 'La1 Pd2 Sb2'
_chemical_name_structure_type CaBe2Ge2
_exptl_crystal_density_diffrn 9.23
_diffrn_ambient_temperature 293.
_citation_title
'La Pd2 Sb2: A pnictide superconductor with Ca Be2 Ge2 type structure'
loop_
_citation_id
_citation_journal_full
_citation_year
_citation_journal_volume
_citation_page_first
_citation_page_last
_citation_journal_id_ASTM
primary 'Journal of Alloys and Compounds' 2014 583 151 154 JALCEU
loop_
_citation_author_citation_id
_citation_author_name
primary 'Ganesanpotti, Subodh'
primary 'Yajima, Takeshi'
primary 'Tohyama, Takami'
primary 'Li, Zhi'
primary 'Nakano, Kousuke'
primary 'Nozaki, Yasumasa'
primary 'Tassel, Cedric'
primary 'Kobayashi, Yoji'
primary 'Kageyama, Hiroshi'
_cell_length_a 4.568(4)
_cell_length_b 4.568(4)
_cell_length_c 10.266(2)
_cell_angle_alpha 90.
_cell_angle_beta 90.
_cell_angle_gamma 90.
_cell_volume 214.22
_cell_formula_units_Z 2
_space_group_name_H-M_alt 'P 4/n m m S'
_space_group_IT_number 129
loop_
_space_group_symop_id
_space_group_symop_operation_xyz
1 '-y+1/2, -x+1/2, z'
2 'y+1/2, x+1/2, z'
3 '-y, -x, -z'
4 'y, x, -z'
5 'y+1/2, -x+1/2, z'
6 '-y+1/2, x+1/2, z'
7 'y, -x, -z'
8 '-y, x, -z'
9 'x+1/2, -y+1/2, -z'
10 '-x+1/2, y+1/2, -z'
11 'x, -y, z'
12 '-x, y, z'
13 '-x+1/2, -y+1/2, -z'
14 'x+1/2, y+1/2, -z'
15 '-x, -y, z'
16 'x, y, z'
loop_
_atom_type_symbol
_atom_type_oxidation_number
La0+ 0
Sb0+ 0
Pd0+ 0
loop_
_atom_site_label
_atom_site_type_symbol
_atom_site_symmetry_multiplicity
_atom_site_Wyckoff_symbol
_atom_site_fract_x
_atom_site_fract_y
_atom_site_fract_z
_atom_site_U_iso_or_equiv
_atom_site_occupancy
La1 La0+ 2 c 0 0.5 0.7531(7) 0.0050(8) 1.
Sb1 Sb0+ 2 b 0.5 0.5 0.5 0.0559(18) 1.
Sb2 Sb0+ 2 c 0 0.5 0.1434(5) 0.0151(8) 1.
Pd1 Pd0+ 2 a 0.5 0.5 0 0.0077(10) 1.
Pd2 Pd0+ 2 c 0 0.5 0.3883(8) 0.0441(15) 1.
#End of TTdata_189724-ICSD